data;

set women:= Bit Krona Tann Gervi;
set men := N O M I;

param happiness: N O M I :=
     Bit  	12    -1000   15    -1000
     Krona	11        3   20        5
     Tann	 7        7   24        1
     Gervi	 0        0    0        0;

end;
